RC101n														
															
CUSTOMER-EVENT				
CUST NO.	DEMAND		ACTION TIME
				
1		23		124
2		31		40
3		10		24
4		40		72
5		21		37
6		20		55
7		21		7
8		8		38
9		20		10
10		32		39
11		42		2
12		22		14
13		9		75
14		10		30
15		21		32
16		19		36
17		16		6
18		19		11
19		41		25
20		11		49
21		11		28
